; benchmark generated from python API
(set-info :status unknown)
(declare-fun x_days () Int)
(assert
 (>= x_days (- 36525)))
(assert
 (<= x_days 36525))
(assert
 (>= x_days 8341))
(assert
 (let (($x29 (or (and (= (mod 2000 4) 0) (and (distinct (mod 2000 100) 0) true)) (= (mod 2000 400) 0))))
(let ((?x36 (ite (= 3 2) (ite $x29 31 31) (ite (= 3 1) (ite $x29 0 0) 0))))
(let ((?x40 (ite $x29 60 59)))
(let ((?x41 (ite (= 3 3) ?x40 ?x36)))
(let ((?x46 (ite (= 3 4) (ite $x29 91 90) ?x41)))
(let ((?x52 (ite (= 3 5) (ite $x29 121 120) ?x46)))
(let ((?x58 (ite (= 3 6) (ite $x29 152 151) ?x52)))
(let ((?x64 (ite (= 3 7) (ite $x29 182 181) ?x58)))
(let ((?x70 (ite (= 3 8) (ite $x29 213 212) ?x64)))
(let ((?x76 (ite (= 3 9) (ite $x29 244 243) ?x70)))
(let ((?x82 (ite (= 3 10) (ite $x29 274 273) ?x76)))
(let ((?x88 (ite (= 3 11) (ite $x29 305 304) ?x82)))
(let ((?x16 (- (+ (* 365 (- 2000 1)) (div (- 2000 1) 4)) (div (- 2000 1) 100))))
(let ((?x95 (+ (+ ?x16 (div (- 2000 1) 400)) (ite (= 3 12) (ite $x29 335 334) ?x88))))
(let ((?x97 (+ ?x95 (- 1 1))))
(let ((?x1672 (+ x_days ?x97)))
(let ((?x257 (mod ?x1672 146097)))
(let ((?x1157 (div ?x257 36524)))
(let ((?x1477 (ite (<= 4 ?x1157) 3 ?x1157)))
(let ((?x480 (- ?x257 (* ?x1477 36524))))
(let ((?x201 (mod ?x480 1461)))
(let ((?x206 (div ?x201 365)))
(let ((?x571 (ite (<= 4 ?x206) 3 ?x206)))
(let ((?x638 (+ (+ (* (div ?x1672 146097) 400) (* ?x1477 100)) (* (div ?x480 1461) 4))))
(let ((?x539 (+ (+ ?x638 ?x571) 1)))
(let (($x100 (or (and (= (mod ?x539 4) 0) (and (distinct (mod ?x539 100) 0) true)) (= (mod ?x539 400) 0))))
(let ((?x550 (- ?x201 (* ?x571 365))))
(let ((?x702 (ite $x100 31 31)))
(let (($x727 (>= ?x550 ?x702)))
(let ((?x1814 (ite $x727 (+ (- ?x550 ?x702) 1) (+ (- ?x550 (ite $x100 0 0)) 1))))
(let ((?x1594 (ite $x100 60 59)))
(let (($x182 (>= ?x550 ?x1594)))
(let ((?x564 (ite $x100 91 90)))
(let (($x889 (>= ?x550 ?x564)))
(let ((?x715 (ite $x889 (+ (- ?x550 ?x564) 1) (ite $x182 (+ (- ?x550 ?x1594) 1) ?x1814))))
(let ((?x788 (ite $x100 121 120)))
(let (($x395 (>= ?x550 ?x788)))
(let ((?x672 (ite $x100 152 151)))
(let (($x269 (>= ?x550 ?x672)))
(let ((?x1532 (ite $x269 (+ (- ?x550 ?x672) 1) (ite $x395 (+ (- ?x550 ?x788) 1) ?x715))))
(let ((?x1406 (ite $x100 182 181)))
(let (($x620 (>= ?x550 ?x1406)))
(let ((?x525 (ite $x100 213 212)))
(let (($x658 (>= ?x550 ?x525)))
(let ((?x504 (ite $x658 (+ (- ?x550 ?x525) 1) (ite $x620 (+ (- ?x550 ?x1406) 1) ?x1532))))
(let ((?x737 (ite $x100 244 243)))
(let (($x443 (>= ?x550 ?x737)))
(let ((?x293 (ite $x100 274 273)))
(let (($x652 (>= ?x550 ?x293)))
(let ((?x1359 (ite $x652 (+ (- ?x550 ?x293) 1) (ite $x443 (+ (- ?x550 ?x737) 1) ?x504))))
(let ((?x1010 (ite $x100 305 304)))
(let (($x180 (>= ?x550 ?x1010)))
(let ((?x356 (ite $x100 335 334)))
(let (($x311 (>= ?x550 ?x356)))
(let ((?x1464 (ite $x311 (+ (- ?x550 ?x356) 1) (ite $x180 (+ (- ?x550 ?x1010) 1) ?x1359))))
(let ((?x1268 (ite $x395 5 (ite $x889 4 (ite $x182 3 (ite $x727 2 1))))))
(let ((?x235 (ite $x443 9 (ite $x658 8 (ite $x620 7 (ite $x269 6 ?x1268))))))
(let ((?x567 (ite $x311 12 (ite $x180 11 (ite $x652 10 ?x235)))))
(let ((?x330 (- (+ ?x567 0) 1)))
(let ((?x421 (+ (mod ?x330 12) 1)))
(let ((?x226 (ite (or (= ?x421 4) (= ?x421 6) (= ?x421 9) (= ?x421 11)) 30 31)))
(let (($x785 (and (= (mod (+ (+ ?x539 0) (div ?x330 12)) 4) 0) (and (distinct (mod (+ (+ ?x539 0) (div ?x330 12)) 100) 0) true))))
(let (($x1111 (or $x785 (= (mod (+ (+ ?x539 0) (div ?x330 12)) 400) 0))))
(let ((?x626 (ite (= ?x421 2) (ite $x1111 29 28) ?x226)))
(let (($x1126 (> 1 ?x1464)))
(let ((?x1700 (ite (= 2 ?x421) (ite $x1111 31 31) (ite (= 1 ?x421) (ite $x1111 0 0) 0))))
(let ((?x1645 (ite (= 4 ?x421) (ite $x1111 91 90) (ite (= 3 ?x421) (ite $x1111 60 59) ?x1700))))
(let ((?x2663 (ite (= 6 ?x421) (ite $x1111 152 151) (ite (= 5 ?x421) (ite $x1111 121 120) ?x1645))))
(let ((?x3508 (ite (= 8 ?x421) (ite $x1111 213 212) (ite (= 7 ?x421) (ite $x1111 182 181) ?x2663))))
(let ((?x2902 (ite (= 10 ?x421) (ite $x1111 274 273) (ite (= 9 ?x421) (ite $x1111 244 243) ?x3508))))
(let ((?x3034 (ite (= 12 ?x421) (ite $x1111 335 334) (ite (= 11 ?x421) (ite $x1111 305 304) ?x2902))))
(let ((?x1346 (+ (* 365 (- (+ (+ ?x539 0) (div ?x330 12)) 1)) (div (- (+ (+ ?x539 0) (div ?x330 12)) 1) 4))))
(let ((?x929 (+ (- ?x1346 (div (- (+ (+ ?x539 0) (div ?x330 12)) 1) 100)) (div (- (+ (+ ?x539 0) (div ?x330 12)) 1) 400))))
(let ((?x697 (+ (+ ?x929 ?x3034) (- (ite $x1126 1 (ite (> ?x1464 ?x626) ?x626 ?x1464)) 1))))
(let (($x420 (or (= (+ (mod (- (+ ?x567 1) 1) 12) 1) 4) (= (+ (mod (- (+ ?x567 1) 1) 12) 1) 6) (= (+ (mod (- (+ ?x567 1) 1) 12) 1) 9) (= (+ (mod (- (+ ?x567 1) 1) 12) 1) 11))))
(let (($x1324 (= (mod (+ (+ ?x539 0) (div (- (+ ?x567 1) 1) 12)) 400) 0)))
(let (($x284 (and (distinct (mod (+ (+ ?x539 0) (div (- (+ ?x567 1) 1) 12)) 100) 0) true)))
(let (($x896 (= (mod (+ (+ ?x539 0) (div (- (+ ?x567 1) 1) 12)) 4) 0)))
(let (($x336 (or (and $x896 $x284) $x1324)))
(let ((?x307 (ite (= (+ (mod (- (+ ?x567 1) 1) 12) 1) 2) (ite $x336 29 28) (ite $x420 30 31))))
(let ((?x1220 (ite (= 1 (+ (mod (- (+ ?x567 1) 1) 12) 1)) (ite $x336 0 0) 0)))
(let ((?x306 (ite (= 2 (+ (mod (- (+ ?x567 1) 1) 12) 1)) (ite $x336 31 31) ?x1220)))
(let ((?x508 (ite (= 3 (+ (mod (- (+ ?x567 1) 1) 12) 1)) (ite $x336 60 59) ?x306)))
(let ((?x444 (ite (= 4 (+ (mod (- (+ ?x567 1) 1) 12) 1)) (ite $x336 91 90) ?x508)))
(let ((?x163 (ite (= 5 (+ (mod (- (+ ?x567 1) 1) 12) 1)) (ite $x336 121 120) ?x444)))
(let ((?x594 (ite (= 6 (+ (mod (- (+ ?x567 1) 1) 12) 1)) (ite $x336 152 151) ?x163)))
(let ((?x250 (ite (= 7 (+ (mod (- (+ ?x567 1) 1) 12) 1)) (ite $x336 182 181) ?x594)))
(let ((?x399 (ite (= 8 (+ (mod (- (+ ?x567 1) 1) 12) 1)) (ite $x336 213 212) ?x250)))
(let ((?x1246 (ite (= 9 (+ (mod (- (+ ?x567 1) 1) 12) 1)) (ite $x336 244 243) ?x399)))
(let ((?x378 (ite (= 10 (+ (mod (- (+ ?x567 1) 1) 12) 1)) (ite $x336 274 273) ?x1246)))
(let ((?x128 (ite (= 11 (+ (mod (- (+ ?x567 1) 1) 12) 1)) (ite $x336 305 304) ?x378)))
(let ((?x374 (ite (= 12 (+ (mod (- (+ ?x567 1) 1) 12) 1)) (ite $x336 335 334) ?x128)))
(let ((?x360 (+ ?x539 0)))
(let ((?x503 (+ ?x360 (div (- (+ ?x567 1) 1) 12))))
(let ((?x154 (- ?x503 1)))
(let ((?x502 (+ (- (+ (* 365 ?x154) (div ?x154 4)) (div ?x154 100)) (div ?x154 400))))
(let ((?x1000 (+ (+ ?x502 ?x374) (- (ite $x1126 1 (ite (> ?x1464 ?x307) ?x307 ?x1464)) 1))))
(> (- (+ ?x1000 0) ?x97) (- (+ ?x697 31) ?x97))))))))))))))))))))))))))))))))))))))))))))))))))))))))))))))))))))))))))))))))))))))))))))))))))))
(check-sat)
